
c--------------------------------------------------------------
c	Ferhat Erata
c	CPSC 454/554
c	Tue Nov 26 2019	21:16:53
c--------------------------------------------------------------
s UNSATISFIABLE
c--------------------------------------------------------------
c statistics of ../../bench2/unsat/120-2150.cnf:
c [ mem_used: 138280, conflicts: 0, max_lemmas: 2000 ]
c--------------------------------------------------------------
c	Normal termination.
